p edge 2495 2425
e 1 2
e 1 3
e 1 4
e 1 5
e 1 6
e 1 7
e 1 8
e 1 9
e 1 10
e 1 11
e 1 12
e 1 13
e 1 14
e 1 15
e 1 16
e 1 17
e 1 18
e 1 19
e 1 20
e 1 21
e 1 22
e 1 23
e 1 24
e 1 25
e 1 26
e 1 27
e 1 28
e 1 29
e 30 31
e 30 32
e 30 33
e 30 34
e 30 35
e 30 36
e 30 37
e 30 38
e 30 39
e 30 40
e 30 41
e 30 42
e 30 43
e 30 44
e 30 45
e 30 46
e 47 48
e 47 49
e 47 50
e 47 51
e 47 52
e 47 53
e 47 54
e 47 55
e 47 56
e 47 57
e 47 58
e 47 59
e 47 60
e 61 62
e 61 63
e 61 64
e 61 65
e 61 66
e 61 67
e 61 68
e 61 69
e 61 70
e 61 71
e 61 72
e 61 73
e 61 74
e 61 75
e 61 76
e 61 77
e 61 78
e 61 79
e 61 80
e 61 81
e 61 82
e 61 83
e 61 84
e 61 85
e 61 86
e 61 87
e 61 88
e 61 89
e 61 90
e 61 91
e 61 92
e 61 93
e 61 94
e 61 95
e 61 96
e 61 97
e 61 98
e 61 99
e 61 100
e 61 101
e 61 102
e 61 103
e 61 104
e 61 105
e 106 107
e 106 108
e 106 109
e 106 110
e 106 111
e 106 112
e 106 113
e 106 114
e 106 115
e 106 116
e 106 117
e 106 118
e 106 119
e 106 120
e 106 121
e 106 122
e 106 123
e 106 124
e 106 125
e 126 127
e 126 128
e 126 129
e 126 130
e 126 131
e 126 132
e 126 133
e 126 134
e 126 135
e 126 136
e 126 137
e 126 138
e 126 139
e 126 140
e 126 141
e 126 142
e 126 143
e 126 144
e 126 145
e 126 146
e 126 147
e 126 148
e 126 149
e 126 150
e 126 151
e 126 152
e 126 153
e 126 154
e 126 155
e 156 157
e 156 158
e 156 159
e 156 160
e 156 161
e 156 162
e 156 163
e 156 164
e 156 165
e 156 166
e 156 167
e 156 168
e 156 169
e 170 171
e 170 172
e 170 173
e 170 174
e 170 175
e 170 176
e 170 177
e 170 178
e 170 179
e 170 180
e 170 181
e 170 182
e 170 183
e 170 184
e 185 186
e 185 187
e 185 188
e 185 189
e 185 190
e 185 191
e 185 192
e 185 193
e 185 194
e 185 195
e 185 196
e 185 197
e 185 198
e 185 199
e 185 200
e 185 201
e 185 202
e 185 203
e 185 204
e 185 205
e 185 206
e 185 207
e 185 208
e 185 209
e 185 210
e 185 211
e 185 212
e 185 213
e 185 214
e 185 215
e 216 217
e 216 218
e 216 219
e 216 220
e 216 221
e 216 222
e 216 223
e 216 224
e 216 225
e 216 226
e 216 227
e 216 228
e 216 229
e 216 230
e 216 231
e 216 232
e 216 233
e 216 234
e 216 235
e 216 236
e 216 237
e 216 238
e 216 239
e 216 240
e 216 241
e 216 242
e 216 243
e 216 244
e 216 245
e 216 246
e 216 247
e 216 248
e 216 249
e 216 250
e 216 251
e 216 252
e 216 253
e 216 254
e 255 256
e 255 257
e 255 258
e 255 259
e 255 260
e 255 261
e 255 262
e 255 263
e 255 264
e 255 265
e 255 266
e 255 267
e 255 268
e 255 269
e 255 270
e 255 271
e 255 272
e 255 273
e 255 274
e 255 275
e 255 276
e 255 277
e 255 278
e 255 279
e 255 280
e 255 281
e 255 282
e 255 283
e 255 284
e 255 285
e 255 286
e 255 287
e 255 288
e 255 289
e 255 290
e 255 291
e 255 292
e 255 293
e 255 294
e 255 295
e 255 296
e 255 297
e 255 298
e 255 299
e 255 300
e 255 301
e 255 302
e 255 303
e 255 304
e 255 305
e 255 306
e 255 307
e 255 308
e 255 309
e 255 310
e 255 311
e 255 312
e 255 313
e 255 314
e 255 315
e 316 317
e 316 318
e 316 319
e 316 320
e 316 321
e 316 322
e 316 323
e 316 324
e 316 325
e 316 326
e 316 327
e 316 328
e 316 329
e 316 330
e 316 331
e 316 332
e 316 333
e 316 334
e 316 335
e 316 336
e 316 337
e 316 338
e 316 339
e 340 341
e 340 342
e 340 343
e 340 344
e 340 345
e 340 346
e 340 347
e 340 348
e 340 349
e 340 350
e 340 351
e 340 352
e 340 353
e 340 354
e 340 355
e 340 356
e 340 357
e 340 358
e 340 359
e 340 360
e 340 361
e 340 362
e 363 364
e 363 365
e 363 366
e 363 367
e 363 368
e 363 369
e 363 370
e 363 371
e 363 372
e 363 373
e 363 374
e 363 375
e 363 376
e 363 377
e 363 378
e 363 379
e 363 380
e 363 381
e 363 382
e 363 383
e 363 384
e 363 385
e 363 386
e 363 387
e 363 388
e 363 389
e 363 390
e 363 391
e 363 392
e 363 393
e 363 394
e 395 396
e 395 397
e 395 398
e 395 399
e 395 400
e 395 401
e 395 402
e 395 403
e 395 404
e 395 405
e 395 406
e 395 407
e 395 408
e 395 409
e 395 410
e 395 411
e 395 412
e 395 413
e 395 414
e 395 415
e 395 416
e 395 417
e 395 418
e 395 419
e 395 420
e 395 421
e 395 422
e 395 423
e 395 424
e 395 425
e 395 426
e 395 427
e 395 428
e 395 429
e 395 430
e 395 431
e 395 432
e 395 433
e 395 434
e 395 435
e 395 436
e 395 437
e 395 438
e 395 439
e 395 440
e 395 441
e 395 442
e 395 443
e 395 444
e 395 445
e 395 446
e 447 448
e 447 449
e 447 450
e 447 451
e 447 452
e 447 453
e 447 454
e 447 455
e 447 456
e 447 457
e 447 458
e 447 459
e 447 460
e 447 461
e 447 462
e 447 463
e 447 464
e 447 465
e 447 466
e 447 467
e 447 468
e 447 469
e 447 470
e 447 471
e 447 472
e 447 473
e 447 474
e 447 475
e 447 476
e 447 477
e 447 478
e 447 479
e 447 480
e 447 481
e 447 482
e 447 483
e 447 484
e 447 485
e 447 486
e 447 487
e 447 488
e 447 489
e 447 490
e 447 491
e 447 492
e 447 493
e 447 494
e 447 495
e 447 496
e 497 498
e 497 499
e 497 500
e 497 501
e 497 502
e 497 503
e 497 504
e 497 505
e 497 506
e 497 507
e 497 508
e 497 509
e 497 510
e 497 511
e 497 512
e 497 513
e 497 514
e 497 515
e 497 516
e 497 517
e 497 518
e 497 519
e 497 520
e 497 521
e 497 522
e 497 523
e 497 524
e 497 525
e 497 526
e 497 527
e 497 528
e 497 529
e 497 530
e 497 531
e 497 532
e 497 533
e 497 534
e 497 535
e 497 536
e 497 537
e 497 538
e 497 539
e 497 540
e 497 541
e 497 542
e 497 543
e 497 544
e 497 545
e 497 546
e 497 547
e 497 548
e 497 549
e 497 550
e 497 551
e 497 552
e 497 553
e 497 554
e 497 555
e 497 556
e 557 558
e 557 559
e 557 560
e 557 561
e 557 562
e 557 563
e 557 564
e 557 565
e 557 566
e 557 567
e 557 568
e 557 569
e 557 570
e 557 571
e 557 572
e 557 573
e 557 574
e 557 575
e 557 576
e 557 577
e 557 578
e 557 579
e 557 580
e 557 581
e 557 582
e 557 583
e 557 584
e 557 585
e 557 586
e 557 587
e 557 588
e 557 589
e 557 590
e 557 591
e 557 592
e 557 593
e 557 594
e 557 595
e 557 596
e 557 597
e 557 598
e 557 599
e 557 600
e 557 601
e 557 602
e 557 603
e 557 604
e 557 605
e 557 606
e 607 608
e 607 609
e 607 610
e 607 611
e 607 612
e 607 613
e 607 614
e 607 615
e 607 616
e 607 617
e 618 619
e 618 620
e 618 621
e 618 622
e 618 623
e 618 624
e 618 625
e 618 626
e 618 627
e 618 628
e 618 629
e 618 630
e 618 631
e 618 632
e 618 633
e 618 634
e 618 635
e 618 636
e 618 637
e 618 638
e 618 639
e 618 640
e 618 641
e 618 642
e 618 643
e 618 644
e 618 645
e 618 646
e 618 647
e 618 648
e 618 649
e 618 650
e 651 652
e 651 653
e 651 654
e 651 655
e 651 656
e 651 657
e 651 658
e 651 659
e 651 660
e 651 661
e 651 662
e 651 663
e 651 664
e 651 665
e 651 666
e 651 667
e 651 668
e 651 669
e 651 670
e 651 671
e 651 672
e 651 673
e 651 674
e 651 675
e 651 676
e 651 677
e 651 678
e 651 679
e 651 680
e 651 681
e 651 682
e 651 683
e 651 684
e 651 685
e 651 686
e 651 687
e 651 688
e 651 689
e 651 690
e 651 691
e 651 692
e 651 693
e 651 694
e 651 695
e 651 696
e 651 697
e 651 698
e 651 699
e 651 700
e 651 701
e 651 702
e 651 703
e 651 704
e 651 705
e 651 706
e 651 707
e 651 708
e 651 709
e 651 710
e 651 711
e 712 713
e 712 714
e 712 715
e 712 716
e 712 717
e 712 718
e 712 719
e 712 720
e 712 721
e 712 722
e 712 723
e 712 724
e 712 725
e 712 726
e 712 727
e 712 728
e 712 729
e 712 730
e 712 731
e 712 732
e 712 733
e 712 734
e 712 735
e 712 736
e 712 737
e 712 738
e 712 739
e 712 740
e 712 741
e 712 742
e 743 744
e 743 745
e 743 746
e 743 747
e 743 748
e 743 749
e 743 750
e 743 751
e 743 752
e 743 753
e 743 754
e 743 755
e 743 756
e 743 757
e 743 758
e 743 759
e 743 760
e 743 761
e 743 762
e 743 763
e 743 764
e 743 765
e 743 766
e 743 767
e 743 768
e 743 769
e 743 770
e 743 771
e 743 772
e 743 773
e 743 774
e 743 775
e 743 776
e 743 777
e 743 778
e 743 779
e 743 780
e 743 781
e 743 782
e 743 783
e 743 784
e 743 785
e 743 786
e 743 787
e 743 788
e 743 789
e 743 790
e 743 791
e 792 793
e 792 794
e 792 795
e 792 796
e 792 797
e 792 798
e 792 799
e 792 800
e 792 801
e 792 802
e 792 803
e 792 804
e 792 805
e 792 806
e 792 807
e 792 808
e 792 809
e 792 810
e 792 811
e 792 812
e 792 813
e 792 814
e 792 815
e 792 816
e 792 817
e 792 818
e 792 819
e 792 820
e 792 821
e 792 822
e 792 823
e 792 824
e 792 825
e 792 826
e 792 827
e 792 828
e 792 829
e 792 830
e 792 831
e 792 832
e 792 833
e 792 834
e 792 835
e 792 836
e 792 837
e 792 838
e 792 839
e 792 840
e 792 841
e 792 842
e 792 843
e 792 844
e 792 845
e 792 846
e 792 847
e 792 848
e 792 849
e 792 850
e 851 852
e 851 853
e 851 854
e 851 855
e 851 856
e 851 857
e 851 858
e 851 859
e 851 860
e 851 861
e 851 862
e 851 863
e 851 864
e 851 865
e 851 866
e 851 867
e 851 868
e 851 869
e 851 870
e 851 871
e 851 872
e 851 873
e 851 874
e 851 875
e 851 876
e 851 877
e 851 878
e 851 879
e 851 880
e 851 881
e 851 882
e 883 884
e 883 885
e 883 886
e 883 887
e 883 888
e 883 889
e 883 890
e 883 891
e 883 892
e 883 893
e 883 894
e 883 895
e 883 896
e 883 897
e 883 898
e 883 899
e 883 900
e 883 901
e 883 902
e 883 903
e 883 904
e 883 905
e 883 906
e 883 907
e 883 908
e 883 909
e 883 910
e 883 911
e 883 912
e 883 913
e 883 914
e 883 915
e 883 916
e 883 917
e 918 919
e 918 920
e 918 921
e 918 922
e 918 923
e 918 924
e 918 925
e 918 926
e 918 927
e 918 928
e 918 929
e 918 930
e 918 931
e 918 932
e 918 933
e 918 934
e 918 935
e 918 936
e 918 937
e 918 938
e 918 939
e 918 940
e 918 941
e 918 942
e 918 943
e 918 944
e 918 945
e 918 946
e 918 947
e 918 948
e 918 949
e 950 951
e 950 952
e 950 953
e 950 954
e 950 955
e 950 956
e 950 957
e 950 958
e 950 959
e 950 960
e 950 961
e 950 962
e 950 963
e 950 964
e 950 965
e 950 966
e 950 967
e 950 968
e 950 969
e 950 970
e 950 971
e 950 972
e 950 973
e 950 974
e 950 975
e 950 976
e 950 977
e 950 978
e 950 979
e 950 980
e 950 981
e 950 982
e 950 983
e 950 984
e 950 985
e 950 986
e 950 987
e 950 988
e 950 989
e 950 990
e 950 991
e 950 992
e 950 993
e 950 994
e 950 995
e 950 996
e 950 997
e 950 998
e 950 999
e 950 1000
e 950 1001
e 950 1002
e 950 1003
e 950 1004
e 950 1005
e 950 1006
e 950 1007
e 950 1008
e 1009 1010
e 1009 1011
e 1009 1012
e 1009 1013
e 1009 1014
e 1009 1015
e 1009 1016
e 1009 1017
e 1009 1018
e 1009 1019
e 1009 1020
e 1009 1021
e 1009 1022
e 1009 1023
e 1009 1024
e 1009 1025
e 1009 1026
e 1009 1027
e 1009 1028
e 1009 1029
e 1009 1030
e 1009 1031
e 1032 1033
e 1032 1034
e 1032 1035
e 1032 1036
e 1032 1037
e 1032 1038
e 1032 1039
e 1032 1040
e 1032 1041
e 1032 1042
e 1032 1043
e 1032 1044
e 1032 1045
e 1032 1046
e 1032 1047
e 1032 1048
e 1032 1049
e 1032 1050
e 1032 1051
e 1032 1052
e 1032 1053
e 1032 1054
e 1032 1055
e 1032 1056
e 1032 1057
e 1032 1058
e 1032 1059
e 1032 1060
e 1032 1061
e 1032 1062
e 1032 1063
e 1064 1065
e 1064 1066
e 1064 1067
e 1064 1068
e 1064 1069
e 1064 1070
e 1064 1071
e 1064 1072
e 1064 1073
e 1064 1074
e 1064 1075
e 1064 1076
e 1064 1077
e 1064 1078
e 1064 1079
e 1064 1080
e 1064 1081
e 1064 1082
e 1064 1083
e 1064 1084
e 1064 1085
e 1064 1086
e 1064 1087
e 1064 1088
e 1064 1089
e 1064 1090
e 1064 1091
e 1064 1092
e 1064 1093
e 1064 1094
e 1064 1095
e 1064 1096
e 1097 1098
e 1097 1099
e 1097 1100
e 1097 1101
e 1097 1102
e 1097 1103
e 1097 1104
e 1097 1105
e 1097 1106
e 1097 1107
e 1097 1108
e 1109 1110
e 1109 1111
e 1109 1112
e 1109 1113
e 1109 1114
e 1109 1115
e 1109 1116
e 1109 1117
e 1109 1118
e 1109 1119
e 1109 1120
e 1109 1121
e 1109 1122
e 1109 1123
e 1109 1124
e 1109 1125
e 1109 1126
e 1109 1127
e 1109 1128
e 1109 1129
e 1109 1130
e 1109 1131
e 1109 1132
e 1109 1133
e 1109 1134
e 1109 1135
e 1109 1136
e 1109 1137
e 1109 1138
e 1109 1139
e 1109 1140
e 1109 1141
e 1109 1142
e 1109 1143
e 1109 1144
e 1109 1145
e 1109 1146
e 1109 1147
e 1109 1148
e 1109 1149
e 1109 1150
e 1109 1151
e 1109 1152
e 1109 1153
e 1109 1154
e 1109 1155
e 1109 1156
e 1109 1157
e 1109 1158
e 1109 1159
e 1109 1160
e 1109 1161
e 1109 1162
e 1109 1163
e 1109 1164
e 1109 1165
e 1109 1166
e 1109 1167
e 1109 1168
e 1109 1169
e 1170 1171
e 1170 1172
e 1170 1173
e 1170 1174
e 1170 1175
e 1170 1176
e 1170 1177
e 1170 1178
e 1170 1179
e 1170 1180
e 1170 1181
e 1170 1182
e 1170 1183
e 1170 1184
e 1170 1185
e 1170 1186
e 1170 1187
e 1170 1188
e 1170 1189
e 1170 1190
e 1170 1191
e 1170 1192
e 1170 1193
e 1170 1194
e 1170 1195
e 1170 1196
e 1170 1197
e 1170 1198
e 1170 1199
e 1170 1200
e 1170 1201
e 1170 1202
e 1170 1203
e 1170 1204
e 1170 1205
e 1170 1206
e 1170 1207
e 1170 1208
e 1170 1209
e 1170 1210
e 1170 1211
e 1170 1212
e 1170 1213
e 1170 1214
e 1170 1215
e 1170 1216
e 1170 1217
e 1170 1218
e 1170 1219
e 1170 1220
e 1170 1221
e 1170 1222
e 1170 1223
e 1170 1224
e 1170 1225
e 1226 1227
e 1226 1228
e 1226 1229
e 1226 1230
e 1226 1231
e 1226 1232
e 1226 1233
e 1226 1234
e 1226 1235
e 1226 1236
e 1226 1237
e 1226 1238
e 1226 1239
e 1226 1240
e 1226 1241
e 1226 1242
e 1226 1243
e 1226 1244
e 1245 1246
e 1245 1247
e 1245 1248
e 1245 1249
e 1245 1250
e 1245 1251
e 1245 1252
e 1245 1253
e 1245 1254
e 1245 1255
e 1245 1256
e 1245 1257
e 1245 1258
e 1245 1259
e 1245 1260
e 1261 1262
e 1261 1263
e 1261 1264
e 1261 1265
e 1261 1266
e 1261 1267
e 1261 1268
e 1261 1269
e 1261 1270
e 1261 1271
e 1261 1272
e 1261 1273
e 1261 1274
e 1261 1275
e 1261 1276
e 1261 1277
e 1261 1278
e 1261 1279
e 1261 1280
e 1261 1281
e 1261 1282
e 1261 1283
e 1261 1284
e 1261 1285
e 1261 1286
e 1261 1287
e 1261 1288
e 1261 1289
e 1261 1290
e 1261 1291
e 1261 1292
e 1261 1293
e 1261 1294
e 1261 1295
e 1261 1296
e 1261 1297
e 1261 1298
e 1261 1299
e 1261 1300
e 1261 1301
e 1261 1302
e 1261 1303
e 1261 1304
e 1261 1305
e 1261 1306
e 1261 1307
e 1261 1308
e 1309 1310
e 1309 1311
e 1309 1312
e 1309 1313
e 1309 1314
e 1309 1315
e 1309 1316
e 1309 1317
e 1309 1318
e 1309 1319
e 1309 1320
e 1309 1321
e 1309 1322
e 1309 1323
e 1309 1324
e 1309 1325
e 1309 1326
e 1309 1327
e 1309 1328
e 1309 1329
e 1309 1330
e 1309 1331
e 1309 1332
e 1309 1333
e 1309 1334
e 1309 1335
e 1309 1336
e 1309 1337
e 1309 1338
e 1309 1339
e 1309 1340
e 1309 1341
e 1309 1342
e 1309 1343
e 1309 1344
e 1309 1345
e 1309 1346
e 1347 1348
e 1347 1349
e 1347 1350
e 1347 1351
e 1347 1352
e 1347 1353
e 1347 1354
e 1347 1355
e 1347 1356
e 1347 1357
e 1347 1358
e 1347 1359
e 1347 1360
e 1347 1361
e 1347 1362
e 1347 1363
e 1347 1364
e 1347 1365
e 1347 1366
e 1347 1367
e 1347 1368
e 1347 1369
e 1347 1370
e 1347 1371
e 1347 1372
e 1347 1373
e 1347 1374
e 1347 1375
e 1347 1376
e 1347 1377
e 1347 1378
e 1347 1379
e 1347 1380
e 1347 1381
e 1347 1382
e 1347 1383
e 1347 1384
e 1347 1385
e 1347 1386
e 1347 1387
e 1347 1388
e 1347 1389
e 1347 1390
e 1347 1391
e 1347 1392
e 1347 1393
e 1347 1394
e 1347 1395
e 1347 1396
e 1397 1398
e 1397 1399
e 1397 1400
e 1397 1401
e 1397 1402
e 1397 1403
e 1397 1404
e 1397 1405
e 1397 1406
e 1397 1407
e 1397 1408
e 1397 1409
e 1397 1410
e 1397 1411
e 1397 1412
e 1397 1413
e 1397 1414
e 1397 1415
e 1397 1416
e 1417 1418
e 1417 1419
e 1417 1420
e 1417 1421
e 1417 1422
e 1417 1423
e 1417 1424
e 1417 1425
e 1417 1426
e 1417 1427
e 1417 1428
e 1417 1429
e 1417 1430
e 1417 1431
e 1417 1432
e 1417 1433
e 1417 1434
e 1417 1435
e 1417 1436
e 1417 1437
e 1438 1439
e 1438 1440
e 1438 1441
e 1438 1442
e 1438 1443
e 1438 1444
e 1438 1445
e 1438 1446
e 1438 1447
e 1438 1448
e 1438 1449
e 1438 1450
e 1438 1451
e 1438 1452
e 1438 1453
e 1438 1454
e 1438 1455
e 1438 1456
e 1438 1457
e 1438 1458
e 1438 1459
e 1438 1460
e 1438 1461
e 1438 1462
e 1463 1464
e 1463 1465
e 1463 1466
e 1463 1467
e 1463 1468
e 1463 1469
e 1463 1470
e 1463 1471
e 1463 1472
e 1463 1473
e 1463 1474
e 1463 1475
e 1463 1476
e 1463 1477
e 1463 1478
e 1463 1479
e 1463 1480
e 1463 1481
e 1463 1482
e 1483 1484
e 1483 1485
e 1483 1486
e 1483 1487
e 1483 1488
e 1483 1489
e 1483 1490
e 1483 1491
e 1483 1492
e 1483 1493
e 1483 1494
e 1483 1495
e 1483 1496
e 1483 1497
e 1483 1498
e 1483 1499
e 1483 1500
e 1483 1501
e 1483 1502
e 1483 1503
e 1483 1504
e 1483 1505
e 1483 1506
e 1483 1507
e 1483 1508
e 1483 1509
e 1483 1510
e 1483 1511
e 1483 1512
e 1483 1513
e 1483 1514
e 1483 1515
e 1483 1516
e 1483 1517
e 1483 1518
e 1483 1519
e 1483 1520
e 1483 1521
e 1483 1522
e 1483 1523
e 1483 1524
e 1483 1525
e 1483 1526
e 1483 1527
e 1483 1528
e 1483 1529
e 1483 1530
e 1531 1532
e 1531 1533
e 1531 1534
e 1531 1535
e 1531 1536
e 1531 1537
e 1531 1538
e 1531 1539
e 1531 1540
e 1531 1541
e 1531 1542
e 1531 1543
e 1531 1544
e 1531 1545
e 1531 1546
e 1531 1547
e 1531 1548
e 1531 1549
e 1531 1550
e 1531 1551
e 1531 1552
e 1531 1553
e 1531 1554
e 1531 1555
e 1531 1556
e 1531 1557
e 1531 1558
e 1531 1559
e 1531 1560
e 1531 1561
e 1531 1562
e 1531 1563
e 1531 1564
e 1531 1565
e 1531 1566
e 1531 1567
e 1531 1568
e 1531 1569
e 1531 1570
e 1531 1571
e 1531 1572
e 1531 1573
e 1531 1574
e 1531 1575
e 1531 1576
e 1577 1578
e 1577 1579
e 1577 1580
e 1577 1581
e 1577 1582
e 1577 1583
e 1577 1584
e 1577 1585
e 1577 1586
e 1577 1587
e 1577 1588
e 1577 1589
e 1577 1590
e 1577 1591
e 1577 1592
e 1577 1593
e 1577 1594
e 1577 1595
e 1577 1596
e 1577 1597
e 1577 1598
e 1577 1599
e 1577 1600
e 1577 1601
e 1577 1602
e 1577 1603
e 1577 1604
e 1577 1605
e 1577 1606
e 1577 1607
e 1577 1608
e 1577 1609
e 1610 1611
e 1610 1612
e 1610 1613
e 1610 1614
e 1610 1615
e 1610 1616
e 1610 1617
e 1610 1618
e 1610 1619
e 1610 1620
e 1610 1621
e 1610 1622
e 1610 1623
e 1610 1624
e 1610 1625
e 1610 1626
e 1610 1627
e 1610 1628
e 1610 1629
e 1610 1630
e 1610 1631
e 1610 1632
e 1610 1633
e 1610 1634
e 1610 1635
e 1610 1636
e 1610 1637
e 1610 1638
e 1610 1639
e 1610 1640
e 1610 1641
e 1610 1642
e 1610 1643
e 1610 1644
e 1610 1645
e 1610 1646
e 1610 1647
e 1610 1648
e 1610 1649
e 1610 1650
e 1610 1651
e 1610 1652
e 1610 1653
e 1610 1654
e 1610 1655
e 1610 1656
e 1657 1658
e 1657 1659
e 1657 1660
e 1657 1661
e 1657 1662
e 1657 1663
e 1657 1664
e 1657 1665
e 1657 1666
e 1657 1667
e 1657 1668
e 1669 1670
e 1669 1671
e 1669 1672
e 1669 1673
e 1669 1674
e 1669 1675
e 1669 1676
e 1669 1677
e 1669 1678
e 1669 1679
e 1669 1680
e 1669 1681
e 1669 1682
e 1669 1683
e 1669 1684
e 1669 1685
e 1669 1686
e 1669 1687
e 1669 1688
e 1669 1689
e 1669 1690
e 1669 1691
e 1669 1692
e 1669 1693
e 1669 1694
e 1669 1695
e 1669 1696
e 1669 1697
e 1669 1698
e 1669 1699
e 1669 1700
e 1669 1701
e 1669 1702
e 1669 1703
e 1669 1704
e 1669 1705
e 1669 1706
e 1669 1707
e 1669 1708
e 1669 1709
e 1669 1710
e 1669 1711
e 1669 1712
e 1669 1713
e 1669 1714
e 1669 1715
e 1669 1716
e 1717 1718
e 1717 1719
e 1717 1720
e 1717 1721
e 1717 1722
e 1717 1723
e 1717 1724
e 1717 1725
e 1717 1726
e 1717 1727
e 1717 1728
e 1717 1729
e 1717 1730
e 1717 1731
e 1717 1732
e 1717 1733
e 1717 1734
e 1717 1735
e 1717 1736
e 1717 1737
e 1717 1738
e 1717 1739
e 1717 1740
e 1717 1741
e 1717 1742
e 1717 1743
e 1717 1744
e 1717 1745
e 1717 1746
e 1717 1747
e 1717 1748
e 1717 1749
e 1717 1750
e 1717 1751
e 1717 1752
e 1717 1753
e 1717 1754
e 1717 1755
e 1717 1756
e 1717 1757
e 1717 1758
e 1717 1759
e 1717 1760
e 1717 1761
e 1717 1762
e 1717 1763
e 1717 1764
e 1717 1765
e 1717 1766
e 1717 1767
e 1717 1768
e 1717 1769
e 1717 1770
e 1771 1772
e 1771 1773
e 1771 1774
e 1771 1775
e 1771 1776
e 1771 1777
e 1771 1778
e 1771 1779
e 1771 1780
e 1771 1781
e 1771 1782
e 1771 1783
e 1771 1784
e 1771 1785
e 1771 1786
e 1771 1787
e 1771 1788
e 1771 1789
e 1771 1790
e 1771 1791
e 1771 1792
e 1771 1793
e 1771 1794
e 1771 1795
e 1771 1796
e 1771 1797
e 1771 1798
e 1771 1799
e 1771 1800
e 1771 1801
e 1771 1802
e 1771 1803
e 1771 1804
e 1771 1805
e 1771 1806
e 1771 1807
e 1771 1808
e 1771 1809
e 1771 1810
e 1771 1811
e 1771 1812
e 1771 1813
e 1771 1814
e 1771 1815
e 1771 1816
e 1771 1817
e 1771 1818
e 1771 1819
e 1820 1821
e 1820 1822
e 1820 1823
e 1820 1824
e 1820 1825
e 1820 1826
e 1820 1827
e 1820 1828
e 1820 1829
e 1820 1830
e 1820 1831
e 1820 1832
e 1820 1833
e 1820 1834
e 1820 1835
e 1820 1836
e 1820 1837
e 1820 1838
e 1820 1839
e 1820 1840
e 1820 1841
e 1820 1842
e 1820 1843
e 1820 1844
e 1820 1845
e 1820 1846
e 1820 1847
e 1820 1848
e 1820 1849
e 1820 1850
e 1820 1851
e 1820 1852
e 1820 1853
e 1820 1854
e 1820 1855
e 1820 1856
e 1820 1857
e 1820 1858
e 1820 1859
e 1820 1860
e 1820 1861
e 1820 1862
e 1820 1863
e 1820 1864
e 1820 1865
e 1820 1866
e 1820 1867
e 1868 1869
e 1868 1870
e 1868 1871
e 1868 1872
e 1868 1873
e 1868 1874
e 1868 1875
e 1868 1876
e 1868 1877
e 1868 1878
e 1868 1879
e 1868 1880
e 1868 1881
e 1868 1882
e 1868 1883
e 1868 1884
e 1868 1885
e 1868 1886
e 1868 1887
e 1868 1888
e 1868 1889
e 1868 1890
e 1868 1891
e 1868 1892
e 1868 1893
e 1868 1894
e 1868 1895
e 1868 1896
e 1868 1897
e 1868 1898
e 1868 1899
e 1868 1900
e 1868 1901
e 1868 1902
e 1868 1903
e 1868 1904
e 1868 1905
e 1868 1906
e 1868 1907
e 1868 1908
e 1868 1909
e 1910 1911
e 1910 1912
e 1910 1913
e 1910 1914
e 1910 1915
e 1910 1916
e 1910 1917
e 1910 1918
e 1910 1919
e 1910 1920
e 1910 1921
e 1910 1922
e 1910 1923
e 1910 1924
e 1910 1925
e 1910 1926
e 1910 1927
e 1910 1928
e 1910 1929
e 1910 1930
e 1910 1931
e 1910 1932
e 1910 1933
e 1910 1934
e 1910 1935
e 1910 1936
e 1910 1937
e 1910 1938
e 1910 1939
e 1910 1940
e 1910 1941
e 1910 1942
e 1910 1943
e 1910 1944
e 1910 1945
e 1910 1946
e 1910 1947
e 1910 1948
e 1910 1949
e 1910 1950
e 1910 1951
e 1910 1952
e 1953 1954
e 1953 1955
e 1953 1956
e 1953 1957
e 1953 1958
e 1953 1959
e 1953 1960
e 1953 1961
e 1953 1962
e 1953 1963
e 1953 1964
e 1953 1965
e 1953 1966
e 1953 1967
e 1953 1968
e 1953 1969
e 1953 1970
e 1953 1971
e 1953 1972
e 1953 1973
e 1953 1974
e 1953 1975
e 1953 1976
e 1953 1977
e 1953 1978
e 1979 1980
e 1979 1981
e 1979 1982
e 1979 1983
e 1979 1984
e 1979 1985
e 1979 1986
e 1979 1987
e 1979 1988
e 1979 1989
e 1990 1991
e 1990 1992
e 1990 1993
e 1990 1994
e 1990 1995
e 1990 1996
e 1990 1997
e 1990 1998
e 1990 1999
e 1990 2000
e 1990 2001
e 1990 2002
e 1990 2003
e 1990 2004
e 1990 2005
e 1990 2006
e 1990 2007
e 1990 2008
e 1990 2009
e 1990 2010
e 1990 2011
e 1990 2012
e 1990 2013
e 1990 2014
e 1990 2015
e 1990 2016
e 1990 2017
e 2018 2019
e 2018 2020
e 2018 2021
e 2018 2022
e 2018 2023
e 2018 2024
e 2018 2025
e 2018 2026
e 2018 2027
e 2018 2028
e 2018 2029
e 2018 2030
e 2018 2031
e 2018 2032
e 2018 2033
e 2034 2035
e 2034 2036
e 2034 2037
e 2034 2038
e 2034 2039
e 2034 2040
e 2034 2041
e 2034 2042
e 2034 2043
e 2034 2044
e 2034 2045
e 2034 2046
e 2034 2047
e 2034 2048
e 2034 2049
e 2034 2050
e 2034 2051
e 2034 2052
e 2034 2053
e 2034 2054
e 2034 2055
e 2034 2056
e 2034 2057
e 2034 2058
e 2034 2059
e 2034 2060
e 2034 2061
e 2034 2062
e 2034 2063
e 2034 2064
e 2034 2065
e 2034 2066
e 2034 2067
e 2034 2068
e 2034 2069
e 2034 2070
e 2034 2071
e 2034 2072
e 2034 2073
e 2034 2074
e 2034 2075
e 2076 2077
e 2076 2078
e 2076 2079
e 2076 2080
e 2076 2081
e 2076 2082
e 2076 2083
e 2076 2084
e 2076 2085
e 2076 2086
e 2076 2087
e 2076 2088
e 2076 2089
e 2090 2091
e 2090 2092
e 2090 2093
e 2090 2094
e 2090 2095
e 2090 2096
e 2090 2097
e 2090 2098
e 2090 2099
e 2090 2100
e 2090 2101
e 2090 2102
e 2090 2103
e 2090 2104
e 2090 2105
e 2090 2106
e 2090 2107
e 2090 2108
e 2090 2109
e 2090 2110
e 2090 2111
e 2090 2112
e 2090 2113
e 2090 2114
e 2090 2115
e 2090 2116
e 2117 2118
e 2117 2119
e 2117 2120
e 2117 2121
e 2117 2122
e 2117 2123
e 2117 2124
e 2117 2125
e 2117 2126
e 2117 2127
e 2117 2128
e 2117 2129
e 2117 2130
e 2117 2131
e 2117 2132
e 2117 2133
e 2117 2134
e 2117 2135
e 2117 2136
e 2117 2137
e 2117 2138
e 2117 2139
e 2117 2140
e 2117 2141
e 2117 2142
e 2117 2143
e 2117 2144
e 2117 2145
e 2117 2146
e 2117 2147
e 2148 2149
e 2148 2150
e 2148 2151
e 2148 2152
e 2148 2153
e 2148 2154
e 2148 2155
e 2148 2156
e 2148 2157
e 2148 2158
e 2148 2159
e 2148 2160
e 2148 2161
e 2148 2162
e 2148 2163
e 2148 2164
e 2148 2165
e 2148 2166
e 2148 2167
e 2148 2168
e 2148 2169
e 2148 2170
e 2148 2171
e 2148 2172
e 2148 2173
e 2148 2174
e 2148 2175
e 2148 2176
e 2148 2177
e 2148 2178
e 2148 2179
e 2148 2180
e 2148 2181
e 2148 2182
e 2148 2183
e 2148 2184
e 2148 2185
e 2148 2186
e 2148 2187
e 2148 2188
e 2148 2189
e 2148 2190
e 2148 2191
e 2148 2192
e 2148 2193
e 2148 2194
e 2148 2195
e 2148 2196
e 2148 2197
e 2148 2198
e 2148 2199
e 2148 2200
e 2148 2201
e 2148 2202
e 2203 2204
e 2203 2205
e 2203 2206
e 2203 2207
e 2203 2208
e 2203 2209
e 2203 2210
e 2203 2211
e 2203 2212
e 2203 2213
e 2203 2214
e 2203 2215
e 2203 2216
e 2203 2217
e 2203 2218
e 2203 2219
e 2203 2220
e 2203 2221
e 2203 2222
e 2203 2223
e 2203 2224
e 2203 2225
e 2203 2226
e 2203 2227
e 2203 2228
e 2203 2229
e 2203 2230
e 2203 2231
e 2203 2232
e 2203 2233
e 2203 2234
e 2203 2235
e 2203 2236
e 2203 2237
e 2203 2238
e 2203 2239
e 2203 2240
e 2203 2241
e 2203 2242
e 2203 2243
e 2203 2244
e 2203 2245
e 2203 2246
e 2203 2247
e 2203 2248
e 2203 2249
e 2203 2250
e 2203 2251
e 2203 2252
e 2203 2253
e 2254 2255
e 2254 2256
e 2254 2257
e 2254 2258
e 2254 2259
e 2254 2260
e 2254 2261
e 2254 2262
e 2254 2263
e 2254 2264
e 2254 2265
e 2254 2266
e 2254 2267
e 2254 2268
e 2254 2269
e 2254 2270
e 2254 2271
e 2254 2272
e 2254 2273
e 2254 2274
e 2254 2275
e 2254 2276
e 2254 2277
e 2254 2278
e 2254 2279
e 2254 2280
e 2254 2281
e 2254 2282
e 2254 2283
e 2254 2284
e 2254 2285
e 2254 2286
e 2254 2287
e 2254 2288
e 2254 2289
e 2290 2291
e 2290 2292
e 2290 2293
e 2290 2294
e 2290 2295
e 2290 2296
e 2290 2297
e 2290 2298
e 2290 2299
e 2290 2300
e 2290 2301
e 2290 2302
e 2290 2303
e 2290 2304
e 2290 2305
e 2290 2306
e 2290 2307
e 2290 2308
e 2290 2309
e 2290 2310
e 2290 2311
e 2290 2312
e 2290 2313
e 2290 2314
e 2290 2315
e 2290 2316
e 2290 2317
e 2290 2318
e 2290 2319
e 2290 2320
e 2290 2321
e 2290 2322
e 2290 2323
e 2290 2324
e 2290 2325
e 2290 2326
e 2290 2327
e 2290 2328
e 2290 2329
e 2290 2330
e 2290 2331
e 2290 2332
e 2290 2333
e 2290 2334
e 2290 2335
e 2290 2336
e 2290 2337
e 2290 2338
e 2290 2339
e 2290 2340
e 2341 2342
e 2341 2343
e 2341 2344
e 2341 2345
e 2341 2346
e 2341 2347
e 2341 2348
e 2341 2349
e 2341 2350
e 2341 2351
e 2341 2352
e 2341 2353
e 2341 2354
e 2341 2355
e 2341 2356
e 2341 2357
e 2341 2358
e 2341 2359
e 2341 2360
e 2341 2361
e 2341 2362
e 2363 2364
e 2363 2365
e 2363 2366
e 2363 2367
e 2363 2368
e 2363 2369
e 2363 2370
e 2363 2371
e 2363 2372
e 2363 2373
e 2363 2374
e 2363 2375
e 2363 2376
e 2363 2377
e 2363 2378
e 2363 2379
e 2363 2380
e 2363 2381
e 2363 2382
e 2363 2383
e 2363 2384
e 2363 2385
e 2386 2387
e 2386 2388
e 2386 2389
e 2386 2390
e 2386 2391
e 2386 2392
e 2386 2393
e 2386 2394
e 2386 2395
e 2386 2396
e 2386 2397
e 2386 2398
e 2386 2399
e 2386 2400
e 2386 2401
e 2386 2402
e 2386 2403
e 2386 2404
e 2386 2405
e 2386 2406
e 2386 2407
e 2386 2408
e 2386 2409
e 2386 2410
e 2386 2411
e 2386 2412
e 2386 2413
e 2386 2414
e 2386 2415
e 2386 2416
e 2386 2417
e 2386 2418
e 2386 2419
e 2386 2420
e 2386 2421
e 2386 2422
e 2386 2423
e 2386 2424
e 2386 2425
e 2386 2426
e 2386 2427
e 2386 2428
e 2386 2429
e 2386 2430
e 2386 2431
e 2386 2432
e 2386 2433
e 2386 2434
e 2386 2435
e 2386 2436
e 2386 2437
e 2386 2438
e 2386 2439
e 2440 2441
e 2440 2442
e 2440 2443
e 2440 2444
e 2440 2445
e 2440 2446
e 2440 2447
e 2440 2448
e 2440 2449
e 2440 2450
e 2440 2451
e 2440 2452
e 2440 2453
e 2440 2454
e 2440 2455
e 2440 2456
e 2440 2457
e 2440 2458
e 2440 2459
e 2440 2460
e 2440 2461
e 2440 2462
e 2440 2463
e 2440 2464
e 2440 2465
e 2440 2466
e 2440 2467
e 2440 2468
e 2440 2469
e 2440 2470
e 2440 2471
e 2440 2472
e 2440 2473
e 2440 2474
e 2440 2475
e 2440 2476
e 2440 2477
e 2440 2478
e 2440 2479
e 2440 2480
e 2440 2481
e 2440 2482
e 2440 2483
e 2440 2484
e 2440 2485
e 2440 2486
e 2440 2487
e 2440 2488
e 2440 2489
e 2440 2490
e 2440 2491
e 2440 2492
e 2440 2493
e 2440 2494
e 2440 2495
